10402
1 1 0 0 1 1 0 0 1 1 
8 0 4 0 9 9 5 5 4 5 5 4 1 9 9 9 9 5 5 5 0 0 0 4 0 0 8 4 4 5 5 5 4 4 4 5 9 9 0 0 0 9 9 1 5 5 5 5 8 4 4 5 0 0 0 4 9 1 1 5 1 8 8 8 4 4 4 4 8 5 4 4 4 4 4 4 4 4 4 4 4 1 8 4 4 2 6 7 2 7 2 2 2 2 2 2 2 2 2 2 
